702362
108,50,151,28,78,215,75,205,34,37,192,179,196,89,107,161,116,184,101,166,96,91,9,68,6,224,33,129,153,217,21,4,142,170,90,150,171,186,109,228,88,146,12,187,103,38,203,223,176,44,220,13,17,47,225,48,111,134,19,227,125,46,214,197,143,11,174,164,154,65,200,198,10,114,29,193,84,79,95,57,76,139,58,59,221,213,45,212,104,230,93,168,172,204,2,115,82,158,180,121,77,41,106,219,190,99,202,175,54,56,18,92,53,100,216,105,66,24,141,128,222,149,132,52,80,182,61,25,123,85,167,188,124,131,148,173,181,136,195,119,86,70,206,218,126,209,73,113,160,42,51,98,199,178,159,208,185,189,16,60,137,15,138,3,23,69,226,177,122,152,191,201,110,14,165,194,97,120,8,30,64,5,156,211,145,144,26,22,117,20,183,210,7,63,1,72,32,163,31,43,127,147,207,39,74,157,83,67,49,118,71,140,135,162,36,229,133,155,112,27,169,40,81,130,102,55,62,87,35,94,108